p cnf 1166 1263
c ind 781 782 783 796 803 829 890 891 904 911 0
c ind 915 917 920 936 938 941 953 954 973 975 0
c ind 979 990 991 995 996 997 1001 1003 774 889 0
c ind 804 816 775 776 888 779 780 887 1119 1120 0
c ind 1118 1117 1115 1151 1133 1142 1156 1116 1137 1147 0
c ind 1164 1150 1132 1141 1155 1136 1146 1163 1114 1109 0
c ind 1113 1112 1111 1149 1131 1140 1154 1135 1145 1162 0
c ind 1110 1148 1130 1139 1153 1134 1144 1161 1125 1129 0
c ind 1159 1107 1108 1106 1101 1105 1104 1103 1127 1157 0
c ind 1102 1158 1128 1138 1152 1143 1160 1099 1100 777 0
c ind 778 1092 1093 1098 1097 1096 1095 1094 1090 1091 0
c ind 1089 1126 1088 1086 1087 1122 1085 1080 1084 1083 0
c ind 1082 1081 1123 1078 1079 1077 1072 1076 1075 1074 0
c ind 1073 1070 1071 1063 1064 1069 1068 1067 1066 1065 0
c ind 1061 1062 1060 1059 1124 1057 1058 1056 1121 1051 0
c ind 1055 1054 1053 1052 1049 1050 1048 1043 1047 1046 0
c ind 1045 1044 1041 1042 1034 1035 1040 1039 1038 1037 0
c ind 1036 1032 1033 1031 1030 1028 1029 1027 1022 1026 0
c ind 1025 1024 1023 1020 1021 1019 1014 1018 1017 1016 0
c ind 1015 1012 1013 1005 1006 1011 1010 1009 1008 1007 0
c ind 985 986 984 983 982 1004 994 992 993 981 0
c ind 980 1002 989 978 1000 998 999 987 988 977 0
c ind 976 969 974 972 970 971 968 961 960 967 0
c ind 966 965 964 963 962 959 958 957 956 955 0
c ind 773 948 947 945 946 944 943 949 950 942 0
c ind 940 951 939 952 937 935 933 934 932 931 0
c ind 930 929 928 927 786 926 924 925 923 922 0
c ind 894 921 919 918 916 914 912 913 910 905 0
c ind 909 906 907 901 908 903 899 900 902 898 0
c ind 893 897 895 896 892 886 879 871 885 884 0
c ind 883 882 865 864 863 881 862 880 861 860 0
c ind 859 878 877 876 875 874 873 872 870 869 0
c ind 868 867 866 858 851 843 857 856 855 854 0
c ind 837 836 835 853 834 852 833 832 831 850 0
c ind 849 848 847 846 845 844 842 841 840 839 0
c ind 838 830 828 826 827 817 818 825 824 823 0
c ind 822 821 819 820 813 812 814 815 811 810 0
c ind 809 808 806 807 805 802 801 797 798 799 0
c ind 800 793 795 792 791 794 785 790 784 789 0
c ind 787 788 1 0
c ret 599 600 601 602 603 604 605 606 607 608 0
c ret 609 610 611 612 613 614 615 616 617 618 0
c ret 619 620 621 622 623 624 625 626 627 628 0
c ret 629 630 631 632 633 634 635 636 637 638 0
c ret 639 640 641 642 643 644 645 646 647 648 0
c ret 649 650 651 652 653 654 655 656 657 658 0
c ret 659 660 661 662 663 664 665 666 667 668 0
c ret 669 670 671 672 673 674 675 676 677 678 0
c ret 679 680 681 682 683 684 685 686 687 688 0
c ret 689 690 691 692 693 694 695 696 697 698 0
c ret 699 700 701 702 703 704 705 706 707 708 0
c ret 709 710 711 712 713 714 715 716 717 718 0
c ret 719 720 721 722 723 724 725 726 727 728 0
c ret 729 730 731 732 733 734 735 736 737 294 0
c ret 300 301 302 303 304 305 306 307 308 309 0
c ret 310 311 312 313 314 738 315 739 316 317 0
c ret 740 318 741 319 320 321 322 323 324 325 0
c ret 326 327 328 329 330 331 742 743 332 333 0
c ret 334 744 335 336 745 295 337 338 339 340 0
c ret 341 342 343 344 746 345 346 347 348 349 0
c ret 747 350 748 351 749 352 750 353 354 355 0
c ret 356 357 358 359 360 361 362 363 364 751 0
c ret 365 366 367 368 369 370 752 753 371 372 0
c ret 754 373 755 374 375 376 377 296 378 379 0
c ret 380 381 382 383 384 385 386 387 388 389 0
c ret 390 756 391 757 392 758 393 394 759 395 0
c ret 396 397 398 399 400 401 402 403 404 405 0
c ret 760 406 407 408 761 409 762 410 763 764 0
c ret 411 412 413 414 415 416 417 297 418 419 0
c ret 420 421 422 423 765 766 424 425 426 427 0
c ret 428 767 429 430 431 432 433 434 435 436 0
c ret 437 768 438 439 440 441 442 769 770 443 0
c ret 444 771 445 446 772 447 448 449 450 451 0
c ret 452 453 454 455 456 457 458 459 460 461 0
c ret 462 463 464 465 466 467 468 469 470 471 0
c ret 472 473 474 475 476 477 478 479 480 481 0
c ret 482 483 484 485 486 487 488 298 489 490 0
c ret 491 492 493 494 495 496 497 498 499 500 0
c ret 501 502 503 504 505 506 507 508 509 510 0
c ret 511 512 513 514 515 516 517 518 519 520 0
c ret 521 522 523 524 525 526 527 299 528 529 0
c ret 530 531 532 533 534 535 536 537 538 539 0
c ret 540 541 542 543 544 545 546 547 548 549 0
c ret 550 551 552 553 554 555 556 557 558 559 0
c ret 560 561 562 563 564 565 566 567 568 569 0
c ret 570 571 572 573 574 575 576 577 578 579 0
c ret 580 581 582 583 584 585 586 587 588 589 0
c ret 590 591 592 593 594 595 596 597 598 0
2 3 -288 -292 0
2 125 -288 -292 0
-2 292 0
-2 288 0
-2 -3 -125 0
3 -4 -53 115 0
3 4 53 -105 0
3 4 53 115 0
3 -4 -53 -105 0
-3 4 -53 0
-3 -4 53 0
-3 105 -115 0
4 -5 -12 0
4 -5 49 0
-4 5 0
-4 12 -49 0
5 -6 8 0
5 -6 7 11 0
-5 6 0
-5 -7 -8 0
-5 -8 -11 0
6 -1034 -1063 -1092 0
-6 1034 0
-6 1063 0
-6 1092 0
7 1005 0
7 -1006 -1012 0
7 1006 -1013 0
-7 -1005 1006 1013 0
-7 -1005 -1006 1012 0
8 -9 -10 0
-7 8 -10 0
-8 10 0
7 -8 9 0
-7 9 0
9 1014 -1021 0
9 -1014 -1020 0
7 -9 -1014 1020 0
7 -9 1014 1021 0
10 1005 0
10 -1006 1012 0
10 1006 1013 0
-10 -1005 1006 -1013 0
-10 -1005 -1006 -1012 0
-7 11 0
11 -1014 1020 0
11 1014 1021 0
7 -11 -1014 -1020 0
7 -11 1014 -1021 0
12 -13 -48 -1142 0
12 13 -14 -48 0
-12 48 0
-12 -13 1142 0
-12 13 14 0
13 1000 -1002 0
-13 -1000 0
-13 1002 0
14 -15 -1141 0
14 15 -16 0
-14 -15 1141 0
-14 15 16 0
15 972 -974 0
-15 -972 0
-15 974 0
16 17 40 47 0
16 17 40 -43 0
-16 -17 0
-16 -40 0
-16 43 -47 0
17 -38 773 -948 0
17 18 773 948 0
-17 -773 0
-17 38 -948 0
-17 -18 948 0
18 -19 -1138 0
-18 1138 0
-18 19 0
19 -20 34 0
-19 20 0
-19 -34 0
20 -27 28 0
20 21 28 -838 0
-20 -28 0
-20 -21 27 0
-20 27 838 0
21 22 0
21 25 -837 0
21 25 843 0
-21 -22 -25 0
-21 -22 837 -843 0
22 -23 24 -831 -838 0
-22 23 0
-22 -24 0
-22 831 0
-22 838 0
23 832 833 834 0
-23 -832 0
-23 -834 0
-23 -833 0
24 835 -836 0
-24 -835 0
-24 836 0
25 26 837 843 -844 0
-25 -837 0
-25 -26 0
-25 844 0
-25 -843 0
26 851 852 0
-26 -851 0
-26 -852 0
23 27 -831 0
24 27 -831 -837 0
-27 831 0
-23 -27 837 0
-23 -24 -27 0
28 30 33 0
28 30 -32 0
28 29 30 0
-28 -30 0
-28 -29 32 -33 0
29 860 861 862 0
-29 -860 0
-29 -862 0
-29 -861 0
29 30 -859 0
30 31 -859 -865 0
-30 859 0
-29 -30 865 0
-29 -30 -31 0
31 863 -864 0
-31 -863 0
-31 864 0
32 871 872 0
32 871 879 880 0
-32 -871 0
-32 -872 -879 0
-32 -872 -880 0
31 33 -859 865 -866 0
-33 866 0
-31 -33 0
-33 859 0
-33 -865 0
34 -35 -805 0
34 -37 -805 0
34 -36 -805 0
-34 805 0
-34 35 36 37 0
35 -806 807 808 0
-35 806 0
-35 -808 0
-35 -807 0
36 811 814 815 0
-36 -811 0
-36 -815 0
-36 -814 0
37 -811 812 813 0
-37 811 0
-37 -813 0
-37 -812 0
38 -39 1139 0
18 38 39 0
-38 -39 -1139 0
-18 -38 39 0
39 914 -916 0
-39 -914 0
-39 916 0
40 -41 -42 -958 0
40 -41 -42 -959 0
-40 42 0
-40 41 0
-40 958 959 0
41 961 962 963 964 0
-41 -964 0
-41 -963 0
-41 -961 0
-41 -962 0
42 -955 -956 -957 960 0
-42 957 0
-42 -960 0
-42 955 0
-42 956 0
38 43 -44 0
-38 -43 0
-43 44 0
44 45 46 0
-44 -45 0
-44 -46 0
45 927 928 929 0
-45 -927 0
-45 -929 0
-45 -928 0
46 935 -937 0
-46 -935 0
-46 937 0
46 47 -773 0
47 -773 1140 0
-47 773 0
-46 -47 -1140 0
48 -969 976 0
-48 969 0
-48 -976 0
49 50 -969 0
14 16 49 0
16 49 50 0
14 49 -969 0
-16 -49 969 0
-14 -49 -50 0
50 52 -969 -976 0
50 51 -969 -976 0
-50 969 0
-50 976 0
-50 -51 -52 0
51 980 -981 -982 983 0
-51 -980 0
-51 -983 0
-51 982 0
-51 981 0
52 -977 978 0
-52 977 0
-52 -978 0
53 -54 -62 0
53 -54 101 0
-53 54 0
-53 62 -101 0
54 -55 58 0
54 -55 57 61 0
-54 55 0
-54 -57 -58 0
-54 -58 -61 0
55 -56 -555 -584 0
-55 555 0
-55 584 0
-55 56 0
56 -613 -642 -671 -700 0
-56 700 0
-56 613 0
-56 671 0
-56 642 0
57 526 0
57 -527 -533 0
57 527 -534 0
-57 -526 527 534 0
-57 -526 -527 533 0
58 -59 60 0
-58 59 0
-58 -60 0
59 526 0
59 -527 533 0
59 527 534 0
-59 -526 527 -534 0
-59 -526 -527 -533 0
57 60 -535 541 0
57 60 535 542 0
-57 -60 0
-60 535 -542 0
-60 -535 -541 0
-57 61 0
61 -535 541 0
61 535 542 0
57 -61 -535 -541 0
57 -61 535 -542 0
62 -63 -100 -750 0
62 63 -64 -100 0
-62 100 0
-62 -63 750 0
-62 63 64 0
63 521 -523 0
-63 -521 0
-63 523 0
64 -65 -749 0
64 65 -66 0
-64 -65 749 0
-64 65 66 0
65 493 -495 0
-65 -493 0
-65 495 0
66 67 92 99 0
66 67 92 -95 0
-66 -67 0
-66 -92 0
-66 95 -99 0
67 -90 294 -469 0
67 68 294 469 0
-67 -294 0
-67 90 -469 0
-67 -68 469 0
68 -69 -746 0
-68 746 0
-68 69 0
69 70 -74 0
-69 -70 0
-69 74 0
70 -71 -326 0
70 -73 -326 0
70 -72 -326 0
-70 326 0
-70 71 72 73 0
71 -327 328 329 0
-71 327 0
-71 -329 0
-71 -328 0
72 332 335 336 0
-72 -332 0
-72 -336 0
-72 -335 0
73 -332 333 334 0
-73 332 0
-73 -334 0
-73 -333 0
74 75 -82 0
74 75 85 -359 0
-74 -75 0
-74 82 -85 0
-74 82 359 0
75 -76 79 0
75 79 380 0
-75 -79 0
-75 76 -380 0
76 -78 383 386 0
76 -77 -78 383 0
-76 -383 0
-76 78 0
-76 77 -386 0
77 384 -385 0
-77 -384 0
-77 385 0
78 381 382 0
-78 -381 0
-78 -382 0
77 -78 79 80 -81 0
78 -79 0
-79 -80 0
-77 -79 0
-79 81 0
80 392 393 0
80 392 400 401 0
-80 -392 0
-80 -393 -400 0
-80 -393 -401 0
81 -380 383 386 -387 0
-81 387 0
-81 -386 0
-81 380 0
-81 -383 0
82 83 -352 0
82 84 -352 -358 0
-82 352 0
-82 -83 358 0
-82 -83 -84 0
83 353 354 355 0
-83 -353 0
-83 -355 0
-83 -354 0
84 356 -357 0
-84 -356 0
-84 357 0
85 86 88 0
-85 -86 0
-85 -88 0
86 -87 358 -364 0
-86 87 0
-86 364 0
-86 -358 0
-83 84 87 -352 -359 0
83 -87 0
-84 -87 0
-87 352 0
-87 359 0
-87 88 -89 -372 0
-87 88 -89 -373 0
-88 89 0
87 -88 0
-88 372 373 0
89 358 364 -365 0
-89 365 0
-89 -364 0
-89 -358 0
90 -91 747 0
68 90 91 0
-90 -91 -747 0
-68 -90 91 0
91 435 -437 0
-91 -435 0
-91 437 0
92 -93 -94 -479 0
92 -93 -94 -480 0
-92 94 0
-92 93 0
-92 479 480 0
93 482 483 484 485 0
-93 -485 0
-93 -484 0
-93 -482 0
-93 -483 0
94 -476 -477 -478 481 0
-94 478 0
-94 -481 0
-94 476 0
-94 477 0
90 95 -96 0
-90 -95 0
-95 96 0
96 97 98 0
-96 -97 0
-96 -98 0
97 448 449 450 0
-97 -448 0
-97 -450 0
-97 -449 0
98 456 -458 0
-98 -456 0
-98 458 0
98 99 -294 0
99 -294 748 0
-99 294 0
-98 -99 -748 0
100 -490 497 0
-100 490 0
-100 -497 0
101 102 -490 0
64 66 101 0
66 101 102 0
64 101 -490 0
-66 -101 490 0
-64 -101 -102 0
102 104 -490 -497 0
102 103 -490 -497 0
-102 490 0
-102 497 0
-102 -103 -104 0
103 -498 499 0
-103 498 0
-103 -499 0
104 501 -502 -503 504 0
-104 -501 0
-104 -504 0
-104 503 0
-104 502 0
-5 105 -106 0
-5 105 114 0
5 -105 0
-105 106 -114 0
13 -48 106 -107 0
-13 -48 106 -1164 0
48 -106 0
13 -106 107 0
-13 -106 1164 0
-15 107 -1163 0
15 107 -108 0
-15 -107 1163 0
15 -107 108 0
40 108 109 113 0
40 108 109 -112 0
-40 -108 0
-108 -109 0
-108 112 -113 0
109 -111 773 -948 0
109 110 773 948 0
-109 -773 0
-109 111 -948 0
-109 -110 948 0
-19 110 -1160 0
-110 1160 0
19 -110 0
-39 111 1161 0
39 110 111 0
-39 -111 -1161 0
39 -110 -111 0
-44 111 112 0
44 -112 0
-111 -112 0
46 113 -773 0
113 -773 1162 0
-113 773 0
-46 -113 -1162 0
107 114 -969 0
50 108 114 0
107 108 114 0
50 114 -969 0
-50 -107 -114 0
-108 -114 969 0
-54 115 -116 0
-54 115 124 0
54 -115 0
-115 116 -124 0
63 -100 116 -117 0
-63 -100 116 -772 0
100 -116 0
63 -116 117 0
-63 -116 772 0
-65 117 -771 0
65 117 -118 0
-65 -117 771 0
65 -117 118 0
92 118 119 123 0
92 118 119 -122 0
-92 -118 0
-118 -119 0
-118 122 -123 0
119 -121 294 -469 0
119 120 294 469 0
-119 -294 0
-119 121 -469 0
-119 -120 469 0
-69 120 -768 0
-120 768 0
69 -120 0
-91 121 769 0
91 120 121 0
-91 -121 -769 0
91 -120 -121 0
-96 121 122 0
96 -122 0
-121 -122 0
98 123 -294 0
123 -294 770 0
-123 294 0
-98 -123 -770 0
117 124 -490 0
102 118 124 0
117 118 124 0
102 124 -490 0
-102 -117 -124 0
-118 -124 490 0
125 126 135 -144 -267 0
125 -126 -135 -144 -267 0
-125 267 0
-125 -126 135 0
-125 144 0
-125 126 -135 0
-5 126 -127 0
-5 126 134 0
5 -126 0
-126 127 -134 0
13 -48 127 -128 0
-13 -48 127 -1137 0
48 -127 0
13 -127 128 0
-13 -127 1137 0
-15 128 -1136 0
15 128 -129 0
-15 -128 1136 0
15 -128 129 0
40 129 130 133 0
40 129 130 -132 0
-40 -129 0
-129 -130 0
-129 132 -133 0
130 -131 773 -948 0
19 130 773 948 0
-130 -773 0
-130 131 -948 0
-19 -130 948 0
-39 131 1134 0
19 39 131 0
-39 -131 -1134 0
-19 39 -131 0
-44 131 132 0
44 -132 0
-131 -132 0
46 133 -773 0
133 -773 1135 0
-133 773 0
-46 -133 -1135 0
128 134 -969 0
50 129 134 0
128 129 134 0
50 134 -969 0
-50 -128 -134 0
-129 -134 969 0
-54 135 -136 0
-54 135 143 0
54 -135 0
-135 136 -143 0
63 -100 136 -137 0
-63 -100 136 -745 0
100 -136 0
63 -136 137 0
-63 -136 745 0
-65 137 -744 0
65 137 -138 0
-65 -137 744 0
65 -137 138 0
92 138 139 142 0
92 138 139 -141 0
-92 -138 0
-138 -139 0
-138 141 -142 0
139 -140 294 -469 0
69 139 294 469 0
-139 -294 0
-139 140 -469 0
-69 -139 469 0
-91 140 742 0
69 91 140 0
-91 -140 -742 0
-69 91 -140 0
-96 140 141 0
96 -141 0
-140 -141 0
98 142 -294 0
142 -294 743 0
-142 294 0
-98 -142 -743 0
137 143 -490 0
102 138 143 0
137 138 143 0
102 143 -490 0
-102 -137 -143 0
-138 -143 490 0
144 -145 -193 -246 -256 0
144 -145 -193 246 256 0
-144 193 0
-144 246 -256 0
-144 145 0
-144 -246 256 0
145 -146 -161 -184 0
145 146 161 175 0
145 146 161 -184 0
145 -146 -161 175 0
-145 146 -161 0
-145 -146 161 0
-145 -175 184 0
-5 146 -147 0
-5 146 -159 0
-5 146 -158 0
5 -146 0
-146 147 158 159 0
147 150 -151 0
-44 147 148 -151 0
-147 151 0
-147 -148 -150 0
44 -147 -150 0
-39 148 1153 0
39 148 149 0
-39 -148 -1153 0
39 -148 -149 0
-19 149 -1152 0
-149 1152 0
19 -149 0
46 150 -773 0
150 -773 1154 0
-150 773 0
-46 -150 -1154 0
151 -152 157 0
-151 152 0
-151 -157 0
40 152 153 0
-40 -152 0
-152 -153 0
-15 153 -969 0
153 -154 -969 0
-153 969 0
15 -153 154 0
-13 154 155 976 0
-52 154 155 -976 0
-154 -155 0
52 -154 -976 0
13 -154 976 0
51 155 -156 0
-51 -155 0
-155 156 0
156 -969 -976 -977 978 0
-156 977 0
-156 -978 0
-156 969 0
-156 976 0
-148 157 773 -948 0
149 157 773 948 0
-157 -773 0
148 -157 -948 0
-149 -157 948 0
-13 -48 158 -1156 0
-158 1156 0
13 -158 0
48 -158 0
-15 159 -160 -1155 0
-159 1155 0
15 -159 0
-159 160 0
154 160 -969 0
-160 969 0
-154 -160 0
-54 161 -162 0
-54 161 -173 0
-54 161 -172 0
54 -161 0
-161 162 172 173 0
162 165 -166 0
-96 162 163 -166 0
-162 166 0
-162 -163 -165 0
96 -162 -165 0
-91 163 761 0
91 163 164 0
-91 -163 -761 0
91 -163 -164 0
-69 164 -760 0
-164 760 0
69 -164 0
98 165 -294 0
165 -294 762 0
-165 294 0
-98 -165 -762 0
166 -167 171 0
-166 167 0
-166 -171 0
92 167 168 0
-92 -167 0
-167 -168 0
-65 168 -490 0
168 -169 -490 0
-168 490 0
65 -168 169 0
-63 169 170 497 0
-103 169 170 -497 0
-169 -170 0
103 -169 -497 0
63 -169 497 0
-103 104 170 -490 -497 0
103 -170 0
-104 -170 0
-170 490 0
-170 497 0
-163 171 294 -469 0
164 171 294 469 0
-171 -294 0
163 -171 -469 0
-164 -171 469 0
-63 -100 172 -764 0
-172 764 0
63 -172 0
100 -172 0
-65 173 -174 -763 0
-173 763 0
65 -173 0
-173 174 0
169 174 -490 0
-174 490 0
-169 -174 0
-5 175 -176 0
-5 175 -183 0
-5 175 -182 0
5 -175 0
-175 176 182 183 0
176 179 -180 0
-44 176 177 -180 0
-176 180 0
-176 -177 -179 0
44 -176 -179 0
-39 177 1144 0
39 177 178 0
-39 -177 -1144 0
39 -177 -178 0
-19 178 -1143 0
-178 1143 0
19 -178 0
46 179 -773 0
179 -773 1145 0
-179 773 0
-46 -179 -1145 0
-152 180 181 0
152 -180 0
-180 -181 0
-177 181 773 -948 0
178 181 773 948 0
-181 -773 0
177 -181 -948 0
-178 -181 948 0
-13 -48 182 -1147 0
-182 1147 0
13 -182 0
48 -182 0
-15 -160 183 -1146 0
-183 1146 0
15 -183 0
160 -183 0
-55 184 191 -526 0
-55 184 -185 -526 0
-184 526 0
55 -184 0
-184 185 -191 0
185 188 -189 0
-96 185 186 -189 0
-185 189 0
-185 -186 -188 0
96 -185 -188 0
-91 186 752 0
91 186 187 0
-91 -186 -752 0
91 -186 -187 0
-69 187 -751 0
-187 751 0
69 -187 0
98 188 -294 0
188 -294 753 0
-188 294 0
-98 -188 -753 0
-167 189 190 0
167 -189 0
-189 -190 0
-186 190 294 -469 0
187 190 294 469 0
-190 -294 0
186 -190 -469 0
-187 -190 469 0
63 191 192 0
100 191 192 0
191 192 755 0
-191 -192 0
-63 -100 -191 -755 0
-65 -174 192 -754 0
-192 754 0
65 -192 0
174 -192 0
193 194 -195 -230 -238 0
193 194 -195 230 238 0
-193 -194 0
-193 230 -238 0
-193 195 0
-193 -230 238 0
175 -184 194 0
-175 -194 0
184 -194 0
195 196 220 222 -224 0
195 196 -220 -222 -224 0
-195 224 0
-195 -220 222 0
-195 -196 0
-195 220 -222 0
196 197 -208 0
196 -197 208 0
-196 -197 -208 0
-196 197 208 0
197 -201 773 0
45 197 -198 -201 0
-197 201 0
-197 198 -773 0
-45 -197 -773 0
198 892 -1159 0
198 -199 -892 0
-198 199 -892 0
-198 892 1159 0
-20 199 -1121 0
-20 34 199 200 0
20 -199 0
-199 -200 1121 0
-34 -199 1121 0
200 784 1158 0
-200 -784 0
-200 -1158 0
201 202 -205 0
-201 -202 0
-201 205 0
198 202 203 0
198 199 202 0
199 202 -203 773 0
-198 -202 203 0
-199 -202 -203 0
-198 -202 -773 0
203 -204 948 949 0
-203 204 0
-203 -949 0
-203 -948 0
204 950 951 952 0
-204 -950 0
-204 -952 0
-204 -951 0
8 205 -206 0
11 205 -206 -1005 0
-205 206 0
-8 -11 -205 0
-8 -205 1005 0
-6 206 -207 0
6 -206 0
-206 207 0
40 156 207 0
40 51 207 0
-40 -207 0
-51 -156 -207 0
208 -212 294 0
97 208 -209 -212 0
-208 212 0
-208 209 -294 0
-97 -208 -294 0
209 413 -767 0
209 -210 -413 0
-209 210 -413 0
-209 413 767 0
-74 210 -729 0
70 -74 210 211 0
74 -210 0
-210 -211 729 0
-70 -210 729 0
211 305 766 0
-211 -305 0
-211 -766 0
212 213 -216 0
-212 -213 0
-212 216 0
209 213 214 0
209 210 213 0
210 213 -214 294 0
-209 -213 214 0
-210 -213 -214 0
-209 -213 -294 0
214 -215 469 470 473 0
-214 215 0
-214 -473 0
-214 -469 0
-214 -470 0
215 471 472 0
-215 -471 0
-215 -472 0
-55 216 -217 0
55 -216 0
-216 217 0
58 217 -218 0
61 217 -218 -526 0
-217 218 0
-58 -61 -217 0
-58 -217 526 0
92 218 219 0
92 104 218 0
92 218 490 0
-92 -218 0
-104 -218 -219 -490 0
-103 219 -497 0
-219 497 0
103 -219 0
-205 220 -221 773 0
45 -205 220 -221 0
-220 221 0
205 -220 0
-45 -220 -773 0
-20 221 -1121 1123 0
-221 1121 0
-221 -1123 0
20 -221 0
-55 -74 -217 222 -223 0
-222 223 0
55 -222 0
217 -222 0
74 -222 0
223 294 -729 731 0
97 223 -729 731 0
-223 729 0
-223 -731 0
-97 -223 -294 0
10 224 -225 0
9 224 -225 0
11 224 -225 0
-224 225 0
-9 -10 -11 -224 0
21 28 225 -226 0
-27 28 225 -226 0
-225 226 0
-28 -225 0
-21 27 -225 0
34 -207 226 227 -228 0
207 -226 0
-226 -227 0
-34 -226 0
-226 228 0
-45 227 -773 0
-227 773 0
45 -227 0
-6 228 229 -777 0
-6 228 229 778 0
6 -228 0
-228 -229 0
-228 777 -778 0
229 775 776 0
-229 -775 0
-229 -776 0
230 -234 773 0
45 230 231 -234 0
-230 234 0
-230 -231 -773 0
-45 -230 -773 0
231 232 -892 0
-221 231 892 1129 0
-231 892 -1129 0
-231 -232 -892 0
221 -231 892 0
-20 232 -233 0
20 -232 0
-232 233 0
233 -1121 -1123 0
34 233 1121 0
233 -1121 -1127 0
-34 -233 1121 0
-233 -1121 1123 1127 0
-205 234 -235 236 0
-205 231 234 236 0
205 -234 0
-234 -236 0
-231 -234 235 0
235 948 949 0
-235 -948 0
-235 -949 0
232 236 -237 0
204 -231 236 0
204 236 -237 0
-231 232 236 0
231 -236 237 0
-204 -232 -236 0
-203 237 773 0
-237 -773 0
203 -237 0
-216 238 239 0
216 -238 0
-238 -239 0
214 239 -240 0
239 244 245 0
239 -240 244 0
-239 240 -245 0
-214 -239 -244 0
-239 240 -244 0
240 241 -413 0
-74 240 -243 413 0
-240 -241 -413 0
74 -240 413 0
-240 243 413 0
-74 241 -242 0
74 -241 0
-241 242 0
242 -729 -731 0
70 242 729 0
242 -729 -735 0
-70 -242 729 0
-242 -729 731 735 0
243 -729 731 737 0
-243 729 0
-243 -737 0
-243 -731 0
214 244 294 0
-241 244 294 0
-244 -294 0
-214 241 -244 0
97 245 -294 0
-245 294 0
-97 -245 0
-5 153 246 247 0
-5 246 247 255 0
5 -246 0
-246 -247 0
-153 -246 -255 0
247 249 969 0
15 247 248 249 0
-247 -249 0
-247 -248 -969 0
-15 -247 -969 0
-13 248 976 -1151 0
13 -248 0
-248 1151 0
-248 -976 0
40 249 250 254 0
40 249 250 -253 0
-40 -249 0
-249 -250 0
-249 253 -254 0
250 -252 773 -948 0
250 251 773 948 0
-250 -773 0
-250 252 -948 0
-250 -251 948 0
-19 251 -777 0
-251 777 0
19 -251 0
-39 252 1148 0
39 251 252 0
-39 -252 -1148 0
39 -251 -252 0
-44 252 253 0
44 -253 0
-252 -253 0
46 254 -773 0
254 -773 1149 0
-254 773 0
-46 -254 -1149 0
-154 248 255 0
248 255 1150 0
-248 -255 0
154 -255 -1150 0
-54 168 256 257 0
-54 256 257 266 0
54 -256 0
-256 -257 0
-168 -256 -266 0
257 -259 260 0
65 257 258 260 0
-257 -260 0
-257 -258 259 0
-65 -257 259 0
-63 258 497 -759 0
63 -258 0
-258 759 0
-258 -497 0
65 259 490 0
259 490 758 0
170 259 490 0
-259 -490 0
-65 -170 -259 -758 0
92 260 261 265 0
92 260 261 -264 0
-92 -260 0
-260 -261 0
-260 264 -265 0
261 -263 294 -469 0
261 262 294 469 0
-261 -294 0
-261 263 -469 0
-261 -262 469 0
-69 262 -298 0
-262 298 0
69 -262 0
-91 263 756 0
91 262 263 0
-91 -263 -756 0
91 -262 -263 0
-96 263 264 0
96 -264 0
-263 -264 0
98 265 -294 0
265 -294 757 0
-265 294 0
-98 -265 -757 0
-169 258 266 0
258 266 758 0
-258 -266 0
169 -266 -758 0
105 267 -268 -278 0
-115 267 268 278 0
105 267 268 278 0
-115 267 -268 -278 0
-267 268 -278 0
-267 -268 278 0
-105 115 -267 0
-5 268 -269 0
-5 268 277 0
5 -268 0
-268 269 -277 0
13 -48 269 -270 0
-13 -48 269 -1133 0
48 -269 0
13 -269 270 0
-13 -269 1133 0
-15 270 -1132 0
15 270 -271 0
-15 -270 1132 0
15 -270 271 0
40 271 272 276 0
40 271 272 -275 0
-40 -271 0
-271 -272 0
-271 275 -276 0
272 273 -773 1131 0
46 272 273 -773 0
-272 773 0
-272 -273 0
-46 -272 -1131 0
-44 273 274 0
44 -273 0
-273 -274 0
19 39 274 0
-39 274 1130 0
39 274 778 0
-39 -274 -1130 0
-19 39 -274 -778 0
-19 39 275 -778 0
-19 275 -778 948 0
19 -275 0
-275 778 0
-39 -275 -948 0
276 773 1130 0
276 773 948 0
39 276 773 0
-276 -773 0
-39 -276 -948 -1130 0
270 277 -969 0
50 271 277 0
270 271 277 0
50 277 -969 0
-50 -270 -277 0
-271 -277 969 0
-54 278 -279 0
-54 278 287 0
54 -278 0
-278 279 -287 0
63 -100 279 -280 0
-63 -100 279 -741 0
100 -279 0
63 -279 280 0
-63 -279 741 0
-65 280 -740 0
65 280 -281 0
-65 -280 740 0
65 -280 281 0
92 281 282 286 0
92 281 282 -285 0
-92 -281 0
-281 -282 0
-281 285 -286 0
282 283 -294 739 0
98 282 283 -294 0
-282 294 0
-282 -283 0
-98 -282 -739 0
-96 283 284 0
96 -283 0
-283 -284 0
69 91 284 0
-91 284 738 0
91 284 299 0
-91 -284 -738 0
-69 91 -284 -299 0
-69 91 285 -299 0
-69 285 -299 469 0
69 -285 0
-285 299 0
-91 -285 -469 0
286 294 738 0
286 294 469 0
91 286 294 0
-286 -294 0
-91 -286 -469 -738 0
280 287 -490 0
102 281 287 0
280 281 287 0
102 287 -490 0
-102 -280 -287 0
-281 -287 490 0
70 75 -218 288 -289 0
-70 -288 0
-288 289 0
218 -288 0
-75 -288 0
-56 289 -290 294 0
-56 97 289 -290 0
-289 290 0
56 -289 0
-97 -289 -294 0
290 -291 -298 0
290 -291 299 0
-290 291 0
-290 298 -299 0
291 -296 -555 -584 0
291 -297 -555 -584 0
-291 584 0
-291 555 0
-291 296 297 0
59 292 293 0
57 292 293 0
-292 -293 0
-57 -59 -292 0
82 86 88 293 0
-82 -293 0
-88 -293 0
-86 -293 0
1 2 0
-1 -2 0
1165 0

